c SAT Generator for power-law distributed variable frequencies
c -g u -v 20 -c 91 -k 3 -p 2.750000 -b 3.200000 -f /home/schmidt/Devel/ni-kop-sat/data/ensemble/ruf20-91/ruf20-91-424 -u 1 -U 1 -s 2365680127
p cnf 20 91
5 11 -14 0
-2 -5 8 0
12 -17 -20 0
-5 -10 -20 0
10 11 -18 0
-4 19 -20 0
7 -8 -14 0
-4 -10 -18 0
-1 -6 10 0
6 -13 -18 0
-7 -10 15 0
8 -15 -18 0
-3 7 12 0
3 -6 -11 0
1 2 -13 0
-3 5 -19 0
1 -8 16 0
11 -12 -16 0
-7 -11 -18 0
-2 -4 -10 0
-4 -8 14 0
-5 11 14 0
2 9 10 0
2 -6 9 0
7 12 -15 0
-3 5 13 0
7 -9 19 0
1 -12 -20 0
-5 -8 19 0
-7 14 -17 0
3 -4 8 0
-7 -14 18 0
-3 12 -18 0
1 -5 -6 0
1 -4 -7 0
-4 16 19 0
6 -8 13 0
2 -16 18 0
-1 -6 9 0
7 -8 20 0
-1 11 -14 0
-2 3 9 0
-6 -13 17 0
-8 -12 -19 0
-1 -10 14 0
6 13 -17 0
-2 5 8 0
5 -7 14 0
5 -10 -16 0
4 6 -7 0
1 -6 16 0
7 -14 -15 0
-6 12 -16 0
1 6 -13 0
-7 10 -18 0
-11 -18 -19 0
5 -10 20 0
-2 11 12 0
-5 -10 -11 0
3 10 12 0
-9 -12 15 0
-9 18 -20 0
-12 -13 14 0
6 -16 -17 0
-12 -13 17 0
10 11 -13 0
-10 -13 -17 0
2 -15 20 0
7 -11 -20 0
6 -13 16 0
-1 3 6 0
-3 6 20 0
-5 -6 15 0
1 -5 -8 0
-1 2 14 0
1 -8 15 0
-13 -14 19 0
8 -11 13 0
-3 -4 9 0
4 8 -18 0
5 -12 19 0
-4 11 -13 0
-1 -4 -8 0
-11 -16 20 0
3 7 -15 0
1 10 16 0
1 -11 15 0
-4 -5 -9 0
-8 -14 17 0
-3 -7 13 0
-1 -5 -10 0
